4 
5  29 52 
6  15 30 45 
7  00 15 30 45 
8  00 15 30 45 
9  00 15 30 45 
10  00 15 30 45 
11  00 15 30 45 
12  00 15 30 45 
13  00 15 31 46 
14  01 16 28 43 58 
15  12 27 42 57 
16  12 27 42 57 
17  12 27 42 57 
18  12 30 45 
19  04 21 35 50 
20  05 20 35 50 
21  05 20 37 52 
22  07 22 36 51 
23  06 19 43 
0 
